&CONTROL
   calculation = 'scf'
   outdir = './tmp/'
   prefix = 'Fe_AFM'
   pseudo_dir = './'
   verbosity= 'high'
/
&SYSTEM
   ibrav = 1,
   celldm(1) = 5.42,
   nat = 2,
   ntyp = 2,
   ecutwfc = 40

   occupations='smearing',
   smearing='cold',
   degauss=0.01,

   nspin = 2, 
   starting_magnetization(1) =  0.6
   starting_magnetization(2) = -0.6
/

&ELECTRONS
/

ATOMIC_SPECIES
   Fe1  55.845  Fe.pbe-spn-kjpaw_psl.1.0.0.UPF
   Fe2  55.845  Fe.pbe-spn-kjpaw_psl.1.0.0.UPF

ATOMIC_POSITIONS crystal
   Fe1   0.00000    0.00000    0.00000 
   Fe2   0.50000    0.50000    0.50000 

K_POINTS automatic
   10 10 10   0 0 0
