&BANDS
  prefix      = 'graphene',
  outdir      = './tmp/',
  filband='graphene.bands.dat'
/
