&DOS
  prefix      = 'graphene',
  outdir      = './tmp/',
  fildos = 'graphene.dos.dat'
/