&CONTROL
  calculation = 'scf'
  outdir = './tmp/'
  prefix = 'Si_8'
  pseudo_dir = './pseudo/'
  verbosity= 'low'
/
&SYSTEM
  ntyp = 1
  nat = 8
  ibrav = 1
  celldm(1) =10.410909236
  ecutwfc = 44
/
&ELECTRONS
  conv_thr = 1.0d-8
/
ATOMIC_SPECIES
Si     28.0855 Si.pbe-n-rrkjus_psl.1.0.0.UPF
ATOMIC_POSITIONS (alat)
 Si 0.00 0.00 0.00
 Si 0.25 0.25 0.25
 Si 0.00 0.50 0.50
 Si 0.50 0.50 0.00
 Si 0.50 0.00 0.50
 Si 0.75 0.75 0.25
 Si 0.75 0.25 0.75
 Si 0.25 0.25 0.75
K_POINTS automatic
4 4 4 0 0 0
