&DOS
 prefix='Si',
 outdir='./tmp/',
 fildos='Si.dos.dat'
/
