&CONTROL
  calculation = 'scf'
  outdir = './tmp/'
  prefix = 'Si'
  pseudo_dir = './'
  verbosity= 'high'
/
&SYSTEM
  ecutwfc = 50
  ntyp = 1
  nat = 2
  ibrav = 2
  celldm(1) = 10.410909236
/
&ELECTRONS
  conv_thr = 1.0d-8
/
ATOMIC_SPECIES
Si     28.0855  Si.pbe-n-rrkjus_psl.1.0.0.UPF
ATOMIC_POSITIONS (alat)
 Si 0.00 0.00 0.00
 Si 0.25 0.25 0.25
K_POINTS automatic
10 10 10 0 0 0
