&PROJWFC
 prefix='Si',
 outdir='./tmp/',
 filpdos='Si.pdos.dat'
/
