&control
    calculation = 'relax'
    prefix = 'h2o'
    pseudo_dir = './'
/
&system
    ibrav=1, 
    celldm(1) =10, 
    nat=3, 
    ntyp=2,
    ecutwfc=40
/
&electrons
/
&ions
/
ATOMIC_SPECIES
 H  1.00784  H.pbe-kjpaw_psl.1.0.0.UPF
 O  15.999   O.pbe-n-kjpaw_psl.1.0.0.UPF
ATOMIC_POSITIONS (angstrom)
 O 0.00 0.00 0.00
 H -1.00 0.01 0.02
 H 1.00 0.01 0.03
K_POINTS (automatic)
  1 1 1 0 0 0